p min 18 28
n 1 1
n 16 -1
a 1 2 0 1 0
a 2 3 0 1 0
a 2 9 0 1 -100
a 3 4 0 1 0
a 3 10 0 1 -100
a 3 17 0 1 0
a 4 5 0 1 0
a 4 11 0 1 -100
a 4 17 0 1 43853
a 5 6 0 1 0
a 5 12 0 1 -100
a 5 18 0 1 0
a 6 7 0 1 0
a 6 13 0 1 -100
a 6 18 0 1 43842
a 7 8 0 1 0
a 7 14 0 1 -100
a 7 18 0 1 109858
a 8 15 0 1 -100
a 9 10 0 1 -100
a 10 11 0 1 -100
a 11 12 0 1 -100
a 12 13 0 1 -100
a 13 14 0 1 -100
a 14 15 0 1 -100
a 15 16 0 1 -100
a 17 6 0 1 -99734
a 18 8 0 1 -118450
